# parametros

# tierra cultivable
param t: 1 2 3 :=
1 400 600 300;

# agua disponible
param a: 1 2 3 :=
1 600 800 375;

# consumo agua
param ca: 1 2 3 :=
1 3 2 1;

# cuota maxima de cultivo
param c: 1 2 3 :=
1 600 500 325;

# ganancia neta de cada producto
param u: 1 2 3 :=
1 400 300 100;
